1641770
67 38 15200
38 7 28523
7 11 50738
11 66 13370
66 26 57991
26 55 61621
55 34 20835
34 46 36286
46 43 69394
43 22 102153
22 52 46274
52 33 101509
33 57 88918
57 18 27906
18 10 28652
10 14 62052
14 44 62420
44 31 78229
31 28 65445
28 50 10810
50 59 29672
59 36 8563
36 53 53605
53 37 6554
37 62 30446
62 39 8740
39 51 11004
51 35 8926
35 68 19070
68 8 34471
8 15 6874
15 58 6904
58 9 1777
9 17 5356
17 27 1445
27 45 8214
45 65 16726
65 20 13332
20 48 9225
48 2 7938
2 16 21569
16 63 14689
63 21 32196
21 3 17216
3 61 12947
61 24 5437
24 4 21611
4 47 12782
47 13 9114
13 54 13536
54 1 18207
1 12 10465
12 42 4831
42 32 5759
32 56 1427
56 40 3489
40 5 3130
5 19 15574
19 49 8895
49 23 4353
23 60 7498
60 29 6419
29 25 9940
25 30 1249
30 41 5056
41 6 10602
6 64 32039
64 67 14572
